9
2147483647 100 67 5 75 4 74 28 9 
100 2147483647 21 1 49 11 12 1 82 
67 21 2147483647 5 13 55 24 6 29 
5 1 5 2147483647 55 60 91 59 96 
75 49 13 55 2147483647 84 76 46 63 
4 11 55 60 84 2147483647 97 83 85 
74 12 24 91 76 97 2147483647 18 50 
28 1 6 59 46 83 18 2147483647 48 
9 82 29 96 63 85 50 48 2147483647 
